143930
79,82,33,25,49,67,98,99,50,62,52,83,38,72,35,36,48,17,6,31,74,34,102,14,3,60,46,13,73,101,23,75,57,27,26,9,58,65,43,86,0,42,78,90,95,59,104,100,2,77,93,69,70,53,103,37,94,66,40,10,84,47,1,32,81,71,44,24,80,41,18,8,105,7,96,97,68,5,76,45,85,61,21,20,16,89,63,15,19,55,39,87,12,30,64,51,4,54,29,28,11,92,88,22,91,56
